100
128
22
56
8
19
4
3
14
7
11
52
31
27
2
54
20
28
44
16
21
26
41
64
26
31
15
22
60
22
2
19
20
24
31
3
27
2
21
44
22
62
53
46
32
61
35
61
61
28
5
42
50
30
28
23
51
59
24
51
50
64
62
21
2
24
25
32
55
21
24
32
28
22
24
22
19
5
36
48
44
41
58
3
24
45
34
48
54
34
61
64
40
47
29
50
38
46
60
34
43
32